Grasp exp. instance_n_25_m_5_id_5.lp tipoLifted 0 szPool 5 nIteration 50 alpha 0.4 
Academic license - for non-commercial use only
Read LP format model from file ../input/instancesGenerated/instance_n_25_m_5_id_5.lp
Reading time = 0.00 seconds
: 5 rows, 25 columns, 125 nonzeros
Optimize a model with 5 rows, 25 columns and 125 nonzeros
Variable types: 0 continuous, 25 integer (25 binary)
Coefficient statistics:
  Matrix range     [1e+00, 1e+01]
  Objective range  [1e+00, 1e+01]
  Bounds range     [1e+00, 1e+00]
  RHS range        [5e+01, 7e+01]
Found heuristic solution: objective 66.0000000

Explored 0 nodes (0 simplex iterations) in 0.00 seconds
Thread count was 1 (of 8 available processors)

Solution count 1: 66 
No other solutions better than 0

Solution limit reached
Best objective 6.600000000000e+01, best bound -, gap -
C_1:	 7.00 x_1  = 1.000000 + 8.00 x_2  = 0.000000 + 3.00 x_3  = 0.953878 + 5.00 x_4  = 1.000000 + 2.00 x_5  = 1.000000 + 3.00 x_6  = 1.000000 + 6.00 x_7  = 0.000000 + 4.00 x_8  = 1.000000 + 2.00 x_9  = 0.000000 + 7.00 x_10  = 0.000000 + 3.00 x_11  = 0.000000 + 8.00 x_12  = 0.571279 + 1.00 x_13  = 1.000000 + 2.00 x_14  = 0.000000 + 1.00 x_15  = 0.000000 + 1.00 x_16  = 0.670860 + 5.00 x_17  = 0.716981 + 9.00 x_18  = 0.000000 + 2.00 x_19  = 0.000000 + 1.00 x_20  = 1.000000 + 1.00 x_21  = 1.000000 + 9.00 x_22  = 0.000000 + 6.00 x_23  = 1.000000 + 1.00 x_24  = 1.000000 + 4.00 x_25  = 0.000000 <= 50.00
C_2:	 4.00 x_1  = 1.000000 + 9.00 x_2  = 0.000000 + 8.00 x_3  = 0.953878 + 2.00 x_4  = 1.000000 + 6.00 x_5  = 1.000000 + 3.00 x_6  = 1.000000 + 8.00 x_7  = 0.000000 + 5.00 x_8  = 1.000000 + 5.00 x_9  = 0.000000 + 4.00 x_10  = 0.000000 + 8.00 x_11  = 0.000000 + 10.00 x_12  = 0.571279 + 9.00 x_13  = 1.000000 + 2.00 x_14  = 0.000000 + 1.00 x_15  = 0.000000 + 5.00 x_16  = 0.670860 + 6.00 x_17  = 0.716981 + 10.00 x_18  = 0.000000 + 7.00 x_19  = 0.000000 + 7.00 x_20  = 1.000000 + 2.00 x_21  = 1.000000 + 10.00 x_22  = 0.000000 + 3.00 x_23  = 1.000000 + 10.00 x_24  = 1.000000 + 1.00 x_25  = 0.000000 <= 72.00
C_3:	 3.00 x_1  = 1.000000 + 1.00 x_2  = 0.000000 + 9.00 x_3  = 0.953878 + 9.00 x_4  = 1.000000 + 1.00 x_5  = 1.000000 + 4.00 x_6  = 1.000000 + 4.00 x_7  = 0.000000 + 1.00 x_8  = 1.000000 + 2.00 x_9  = 0.000000 + 5.00 x_10  = 0.000000 + 8.00 x_11  = 0.000000 + 4.00 x_12  = 0.571279 + 4.00 x_13  = 1.000000 + 4.00 x_14  = 0.000000 + 1.00 x_15  = 0.000000 + 7.00 x_16  = 0.670860 + 2.00 x_17  = 0.716981 + 10.00 x_18  = 0.000000 + 5.00 x_19  = 0.000000 + 3.00 x_20  = 1.000000 + 2.00 x_21  = 1.000000 + 1.00 x_22  = 0.000000 + 8.00 x_23  = 1.000000 + 1.00 x_24  = 1.000000 + 7.00 x_25  = 0.000000 <= 53.00
C_4:	 6.00 x_1  = 1.000000 + 2.00 x_2  = 0.000000 + 6.00 x_3  = 0.953878 + 8.00 x_4  = 1.000000 + 3.00 x_5  = 1.000000 + 6.00 x_6  = 1.000000 + 10.00 x_7  = 0.000000 + 5.00 x_8  = 1.000000 + 6.00 x_9  = 0.000000 + 8.00 x_10  = 0.000000 + 7.00 x_11  = 0.000000 + 10.00 x_12  = 0.571279 + 1.00 x_13  = 1.000000 + 7.00 x_14  = 0.000000 + 1.00 x_15  = 0.000000 + 7.00 x_16  = 0.670860 + 4.00 x_17  = 0.716981 + 6.00 x_18  = 0.000000 + 10.00 x_19  = 0.000000 + 8.00 x_20  = 1.000000 + 8.00 x_21  = 1.000000 + 6.00 x_22  = 0.000000 + 1.00 x_23  = 1.000000 + 7.00 x_24  = 1.000000 + 2.00 x_25  = 0.000000 <= 72.00
C_5:	 3.00 x_1  = 1.000000 + 8.00 x_2  = 0.000000 + 2.00 x_3  = 0.953878 + 2.00 x_4  = 1.000000 + 10.00 x_5  = 1.000000 + 1.00 x_6  = 1.000000 + 7.00 x_7  = 0.000000 + 3.00 x_8  = 1.000000 + 6.00 x_9  = 0.000000 + 6.00 x_10  = 0.000000 + 8.00 x_11  = 0.000000 + 4.00 x_12  = 0.571279 + 5.00 x_13  = 1.000000 + 2.00 x_14  = 0.000000 + 1.00 x_15  = 0.000000 + 5.00 x_16  = 0.670860 + 9.00 x_17  = 0.716981 + 2.00 x_18  = 0.000000 + 7.00 x_19  = 0.000000 + 7.00 x_20  = 1.000000 + 4.00 x_21  = 1.000000 + 4.00 x_22  = 0.000000 + 3.00 x_23  = 1.000000 + 10.00 x_24  = 1.000000 + 5.00 x_25  = 0.000000 <= 62.00
Solution initial: 105.818658 
Number Constraints Used in Cover:5
GRASP Method!
Number cuts repeat: 0
value: 105.818658
Number Constraints Used in Cover:10
GRASP Method!
Number cuts repeat: 0
value: 105.818658
Number Constraints Used in Cover:15
GRASP Method!
Number cuts repeat: 0
value: 105.818658
Number Constraints Used in Cover:25
GRASP Method!
Number cuts repeat: 0
value: 105.818658
Number Constraints Used in Cover:31
GRASP Method!
Number cuts repeat: 0
value: 105.818658
Number Constraints Used in Cover:37
GRASP Method!
Number cuts repeat: 0
value: 105.818658
Number Constraints Used in Cover:55
GRASP Method!
Number cuts repeat: 0
value: 105.818658
Number Constraints Used in Cover:71
GRASP Method!
Number cuts repeat: 0
value: 105.818658
Number Constraints Used in Cover:87
GRASP Method!
Number cuts repeat: 0
value: 105.818658
Number Constraints Used in Cover:102
GRASP Method!
Number cuts repeat: 0
value: 105.818658
Number Constraints Used in Cover:115
GRASP Method!
Number cuts repeat: 0
value: 105.818658
Number Constraints Used in Cover:131
GRASP Method!
Number cuts repeat: 0
value: 105.818658
Number Constraints Used in Cover:144
GRASP Method!
Number cuts repeat: 0
value: 105.818658
Number Constraints Used in Cover:159
GRASP Method!
Number cuts repeat: 0
value: 105.818658
Number Constraints Used in Cover:167
GRASP Method!
Number cuts repeat: 0
value: 105.818658
Number Constraints Used in Cover:179
GRASP Method!
Number cuts repeat: 0
value: 105.818658
Number Constraints Used in Cover:195
GRASP Method!
Number cuts repeat: 0
value: 105.818658
Number Constraints Used in Cover:209
GRASP Method!
Number cuts repeat: 0
value: 105.818658
Number Constraints Used in Cover:221
GRASP Method!
Number cuts repeat: 0
value: 105.818658
Number Constraints Used in Cover:232
GRASP Method!
Number cuts repeat: 0
value: 105.818658
Number Constraints Used in Cover:247
GRASP Method!
Number cuts repeat: 0
value: 105.818658
Number Constraints Used in Cover:254
GRASP Method!
Number cuts repeat: 0
value: 105.818658
Number Constraints Used in Cover:263
GRASP Method!
Number cuts repeat: 0
value: 105.818658
Number Constraints Used in Cover:269
GRASP Method!
Number cuts repeat: 0
value: 105.818658
Number Constraints Used in Cover:281
GRASP Method!
Number cuts repeat: 0
value: 105.818658
Number Constraints Used in Cover:296
GRASP Method!
Number cuts repeat: 0
value: 105.818658
Number Constraints Used in Cover:307
GRASP Method!
Number cuts repeat: 0
value: 105.818658
Number Constraints Used in Cover:320
GRASP Method!
Number cuts repeat: 0
value: 105.818658
Number Constraints Used in Cover:340
GRASP Method!
Number cuts repeat: 0
value: 105.818658
Number Constraints Used in Cover:349
GRASP Method!
Number cuts repeat: 0
value: 105.818658
Number Constraints Used in Cover:356
GRASP Method!
Number cuts repeat: 0
value: 105.818658
Number Constraints Used in Cover:367
GRASP Method!
Number cuts repeat: 0
value: 105.818658
Number Constraints Used in Cover:381
GRASP Method!
Number cuts repeat: 0
value: 105.818658
Number Constraints Used in Cover:397
GRASP Method!
Number cuts repeat: 0
value: 105.818658
Number Constraints Used in Cover:411
GRASP Method!
Number cuts repeat: 0
value: 105.818658
Number Constraints Used in Cover:420
GRASP Method!
Number cuts repeat: 0
value: 105.818658
Number Constraints Used in Cover:440
GRASP Method!
Number cuts repeat: 0
value: 105.818658
Number Constraints Used in Cover:445
GRASP Method!
Number cuts repeat: 0
value: 105.818658
Number Constraints Used in Cover:460
GRASP Method!
Number cuts repeat: 0
value: 105.818658
Number Constraints Used in Cover:468
GRASP Method!
Number cuts repeat: 0
value: 105.818658
Number Constraints Used in Cover:479
GRASP Method!
Number cuts repeat: 0
value: 105.818658
Number Constraints Used in Cover:487
GRASP Method!
Number cuts repeat: 0
value: 105.818658
Number Constraints Used in Cover:490
GRASP Method!
Number cuts repeat: 0
value: 105.818658
Number Constraints Used in Cover:498
GRASP Method!
Number cuts repeat: 0
value: 105.818658
Number Constraints Used in Cover:507
GRASP Method!
Number cuts repeat: 0
value: 105.818658
Number Constraints Used in Cover:514
GRASP Method!
Number cuts repeat: 0
value: 105.818658
Number Constraints Used in Cover:522
GRASP Method!
Number cuts repeat: 0
value: 105.818658
Number Constraints Used in Cover:531
GRASP Method!
Number cuts repeat: 0
value: 105.818658
Number Constraints Used in Cover:542
GRASP Method!
Number cuts repeat: 0
value: 105.818658
Number Constraints Used in Cover:556
GRASP Method!
Number cuts repeat: 0
value: 105.818658
Number Constraints Used in Cover:565
GRASP Method!
Number cuts repeat: 0
value: 105.818658
Number Constraints Used in Cover:571
GRASP Method!
Number cuts repeat: 0
value: 105.818658
Number Constraints Used in Cover:586
GRASP Method!
Number cuts repeat: 0
value: 105.818658
Number Constraints Used in Cover:597
GRASP Method!
Number cuts repeat: 0
value: 105.818658
Number Constraints Used in Cover:611
GRASP Method!
Number cuts repeat: 0
value: 105.818658
Number Constraints Used in Cover:621
GRASP Method!
Number cuts repeat: 0
value: 105.818658
Number Constraints Used in Cover:631
GRASP Method!
Number cuts repeat: 0
value: 105.818658
Number Constraints Used in Cover:639
GRASP Method!
Number cuts repeat: 0
value: 105.818658
Number Constraints Used in Cover:650
GRASP Method!
Number cuts repeat: 0
value: 105.818658
Number Constraints Used in Cover:661
GRASP Method!
Number cuts repeat: 0
value: 105.818658
Number Constraints Used in Cover:669
GRASP Method!
Number cuts repeat: 0
value: 105.818658
Number Constraints Used in Cover:682
GRASP Method!
Number cuts repeat: 0
value: 105.818658
Number Constraints Used in Cover:687
GRASP Method!
Number cuts repeat: 0
value: 105.818658
Number Constraints Used in Cover:694
GRASP Method!
Number cuts repeat: 0
value: 105.818658
Number Constraints Used in Cover:700
GRASP Method!
Number cuts repeat: 0
value: 105.818658
Number Constraints Used in Cover:707
GRASP Method!
Number cuts repeat: 0
value: 105.818658
Number Constraints Used in Cover:718
GRASP Method!
Number cuts repeat: 0
value: 105.818658
Number Constraints Used in Cover:727
GRASP Method!
Number cuts repeat: 0
value: 105.818658
Number Cuts Final: 731
